p edge 11 20 10
v 1 5
v 1 11
v 1 8
v 1 9
v 1 1
v 2 4 6
v 1 3
v 1 2
v 1 7
v 1 10
e 1 2
e 1 4
e 1 7
e 1 9
e 2 3
e 2 6
e 2 8
e 3 5
e 3 7
e 3 10
e 4 5
e 4 6
e 4 10
e 5 8
e 5 9
e 6 11
e 7 11
e 8 11
e 9 11
e 10 11
